nNurses = 130;
nHours = 31;
minHours = 5;
maxHours = 13;
maxConsec = 6;
maxPresence = 10;
demand = [41, 37, 33, 36, 35, 37, 35, 38, 34, 32, 31, 29, 32, 37, 33, 38, 41, 39, 42, 37, 38, 35, 30, 33, 35, 40, 37, 42, 47, 43, 46];
